
Gurobi 10.0.1 (linux64) logging started Sun Nov 26 16:34:39 2023

Set parameter LogFile to value "ArtificialInstance/ExperimentV2/S4T4K3/AdRo/gurobiSpRo48.txt"
Gurobi Optimizer version 10.0.1 build v10.0.1rc0 (linux64)

CPU model: AMD EPYC 7H12 64-Core Processor, instruction set [SSE2|AVX|AVX2]
Thread count: 128 physical cores, 128 logical processors, using up to 32 threads

Academic license 656792 - for non-commercial use only - registered to b.___@student.vu.nl
Optimize a model with 21704 rows, 20431 columns and 79516 nonzeros
Model fingerprint: 0xe779eadd
Variable types: 1 continuous, 20430 integer (20430 binary)
Coefficient statistics:
  Matrix range     [1e+00, 4e+01]
  Objective range  [1e+00, 2e+01]
  Bounds range     [1e+00, 1e+00]
  RHS range        [1e+00, 1e+00]
Presolve removed 8985 rows and 8500 columns
Presolve time: 0.26s
Presolved: 12719 rows, 11931 columns, 46436 nonzeros
Variable types: 1 continuous, 11930 integer (11930 binary)

Root relaxation: objective 9.673685e+01, 4309 iterations, 0.20 seconds (0.12 work units)

    Nodes    |    Current Node    |     Objective Bounds      |     Work
 Expl Unexpl |  Obj  Depth IntInf | Incumbent    BestBd   Gap | It/Node Time

H    0     0                      96.7368457   76.19528  21.2%     -    0s
     0     0          -    0        96.73685   96.73685  0.00%     -    0s

Explored 1 nodes (6188 simplex iterations) in 0.57 seconds (0.39 work units)
Thread count was 32 (of 128 available processors)

Solution count 1: 96.7368 

Optimal solution found (tolerance 1.00e-04)
Best objective 9.673684567096e+01, best bound 9.673684567096e+01, gap 0.0000%
